p wcnf 186 372 373 
1 -59 -29 0 
1 108 63 0 
1 -96 -128 0 
1 101 59 0 
1 27 -39 0 
1 -83 112 0 
1 -119 168 0 
1 93 123 0 
1 -72 38 0 
1 -107 122 0 
1 -45 -42 0 
1 2 -186 0 
1 94 -22 0 
1 6 177 0 
1 61 -11 0 
1 -186 152 0 
1 -47 34 0 
1 27 -167 0 
1 120 -18 0 
1 171 23 0 
1 92 -23 0 
1 44 22 0 
1 13 7 0 
1 -112 46 0 
1 76 136 0 
1 -92 -57 0 
1 -176 127 0 
1 -160 23 0 
1 -117 -151 0 
1 33 -93 0 
1 -36 86 0 
1 124 93 0 
1 -66 -135 0 
1 17 4 0 
1 -28 -36 0 
1 -134 -51 0 
1 -144 -100 0 
1 174 -164 0 
1 123 -185 0 
1 92 67 0 
1 149 135 0 
1 141 -118 0 
1 65 3 0 
1 -71 14 0 
1 -44 79 0 
1 162 -51 0 
1 171 -82 0 
1 -18 -74 0 
1 129 164 0 
1 -168 -18 0 
1 -23 -21 0 
1 -50 -137 0 
1 -161 -148 0 
1 33 -4 0 
1 123 120 0 
1 165 168 0 
1 -146 -70 0 
1 130 -154 0 
1 -48 -9 0 
1 150 -135 0 
1 -5 95 0 
1 -96 -90 0 
1 144 89 0 
1 88 181 0 
1 40 35 0 
1 121 -104 0 
1 53 170 0 
1 138 28 0 
1 34 158 0 
1 11 -146 0 
1 -48 -24 0 
1 -180 177 0 
1 -15 -180 0 
1 85 48 0 
1 109 -22 0 
1 156 -152 0 
1 -179 104 0 
1 -33 49 0 
1 119 12 0 
1 124 -6 0 
1 57 -20 0 
1 51 -150 0 
1 -70 -2 0 
1 -26 -31 0 
1 -51 109 0 
1 -157 21 0 
1 -20 -68 0 
1 174 186 0 
1 156 114 0 
1 34 97 0 
1 53 90 0 
1 29 169 0 
1 -81 115 0 
1 -88 -109 0 
1 -152 -75 0 
1 132 100 0 
1 72 -53 0 
1 16 -119 0 
1 8 101 0 
1 -87 -14 0 
1 29 82 0 
1 30 -132 0 
1 -98 -78 0 
1 -141 77 0 
1 -143 -73 0 
1 -172 13 0 
1 -2 30 0 
1 49 -156 0 
1 -43 2 0 
1 157 -60 0 
1 -170 49 0 
1 -18 -81 0 
1 93 -79 0 
1 -178 -172 0 
1 -55 -137 0 
1 3 -50 0 
1 -24 133 0 
1 120 -122 0 
1 45 130 0 
1 -6 -34 0 
1 -63 -137 0 
1 126 38 0 
1 175 -123 0 
1 110 -48 0 
1 -99 -53 0 
1 73 -79 0 
1 182 -116 0 
1 -67 -165 0 
1 134 -155 0 
1 -41 84 0 
1 -53 146 0 
1 126 53 0 
1 -94 173 0 
1 96 37 0 
1 129 -121 0 
1 6 115 0 
1 -42 52 0 
1 -30 186 0 
1 71 95 0 
1 68 20 0 
1 60 24 0 
1 -11 26 0 
1 -163 13 0 
1 62 -92 0 
1 -63 -108 0 
1 -91 99 0 
1 100 50 0 
1 -90 109 0 
1 -179 116 0 
1 159 59 0 
1 -109 73 0 
1 157 -132 0 
1 -96 181 0 
1 5 -91 0 
1 -69 -126 0 
1 78 -58 0 
1 -89 138 0 
1 177 59 0 
1 181 118 0 
1 161 -59 0 
1 -91 -135 0 
1 47 -98 0 
1 179 -89 0 
1 -48 120 0 
1 145 186 0 
1 -151 -120 0 
1 14 -149 0 
1 55 -22 0 
1 92 164 0 
1 72 -185 0 
1 -155 -20 0 
1 48 -80 0 
1 -176 -132 0 
1 163 -41 0 
1 -84 -7 0 
1 -185 175 0 
1 31 -158 0 
1 106 113 0 
1 -163 63 0 
1 -158 66 0 
1 -152 -42 0 
1 -33 -87 0 
1 -167 172 0 
1 142 -80 0 
1 -161 135 0 
1 45 70 0 
1 -24 100 0 
1 -12 30 0 
1 -176 -115 0 
1 -115 -173 0 
1 -139 129 0 
1 -46 156 0 
1 -16 -24 0 
1 51 -23 0 
1 -137 72 0 
1 -177 -116 0 
1 -28 157 0 
1 -52 148 0 
1 -78 -75 0 
1 107 -160 0 
1 103 112 0 
1 -150 -107 0 
1 -59 -70 0 
1 -24 64 0 
1 -74 15 0 
1 -58 -146 0 
1 -31 152 0 
1 46 -165 0 
1 21 -7 0 
1 -26 -18 0 
1 185 -43 0 
1 92 -74 0 
1 -123 -118 0 
1 7 -153 0 
1 -30 -119 0 
1 98 -94 0 
1 59 135 0 
1 79 -30 0 
1 -99 -100 0 
1 -32 126 0 
1 182 -43 0 
1 -32 -26 0 
1 103 -60 0 
1 113 -12 0 
1 119 53 0 
1 5 -13 0 
1 -91 109 0 
1 105 -177 0 
1 75 107 0 
1 -70 185 0 
1 -104 48 0 
1 -13 -52 0 
1 57 -111 0 
1 -8 149 0 
1 -81 -63 0 
1 7 -165 0 
1 -42 10 0 
1 162 95 0 
1 -105 154 0 
1 -156 -107 0 
1 167 122 0 
1 108 185 0 
1 -85 -150 0 
1 55 69 0 
1 -154 -102 0 
1 29 40 0 
1 -142 -168 0 
1 95 152 0 
1 38 -121 0 
1 93 135 0 
1 -32 -164 0 
1 110 40 0 
1 82 179 0 
1 -140 67 0 
1 -45 173 0 
1 -68 35 0 
1 -183 61 0 
1 -132 99 0 
1 169 -181 0 
1 -99 91 0 
1 38 -107 0 
1 124 -22 0 
1 -50 -22 0 
1 -179 18 0 
1 -130 62 0 
1 -118 -142 0 
1 -96 64 0 
1 -182 -98 0 
1 -96 -143 0 
1 173 -103 0 
1 156 20 0 
1 166 176 0 
1 -160 -146 0 
1 -124 120 0 
1 -84 -82 0 
1 -157 -46 0 
1 -9 -54 0 
1 -35 -81 0 
1 38 -42 0 
1 -174 -139 0 
1 -138 156 0 
1 61 -177 0 
1 -70 103 0 
1 -65 -85 0 
1 -54 63 0 
1 21 36 0 
1 -18 137 0 
1 104 -49 0 
1 98 118 0 
1 -126 -65 0 
1 96 66 0 
1 -31 157 0 
1 -75 -103 0 
1 87 167 0 
1 -93 -73 0 
1 142 73 0 
1 -168 171 0 
1 -117 -170 0 
1 153 -184 0 
1 -42 -103 0 
1 -163 76 0 
1 109 130 0 
1 28 148 0 
1 105 119 0 
1 37 156 0 
1 161 5 0 
1 -183 5 0 
1 -34 -87 0 
1 173 -75 0 
1 177 151 0 
1 -122 -175 0 
1 97 -160 0 
1 -81 163 0 
1 186 55 0 
1 10 -183 0 
1 124 -156 0 
1 62 -54 0 
1 118 -134 0 
1 110 -136 0 
1 166 158 0 
1 -97 -42 0 
1 -94 -153 0 
1 106 -143 0 
1 -71 133 0 
1 14 143 0 
1 143 162 0 
1 34 -35 0 
1 122 -36 0 
1 -104 73 0 
1 -90 -30 0 
1 15 49 0 
1 -24 77 0 
1 25 -169 0 
1 -135 132 0 
1 -166 138 0 
1 -159 185 0 
1 -25 115 0 
1 95 -148 0 
1 -39 113 0 
1 -125 -97 0 
1 -128 -113 0 
1 -82 -171 0 
1 -79 -11 0 
1 -128 17 0 
1 -146 68 0 
1 126 -128 0 
1 -50 22 0 
1 34 145 0 
1 36 128 0 
1 -146 -157 0 
1 140 -21 0 
1 -116 153 0 
1 -139 -58 0 
1 -116 -33 0 
1 -167 -70 0 
1 -94 53 0 
1 167 34 0 
1 -117 46 0 
1 132 122 0 
1 -17 -125 0 
1 -15 -31 0 
1 106 122 0 
1 90 -65 0 
1 -161 96 0 
1 -3 -180 0 
1 52 -78 0 
1 185 -16 0 
1 -39 -147 0 
1 164 13 0 
1 34 -28 0 
1 130 148 0 
1 -79 -59 0 
